1407322
15 6 10550
6 30 7944
30 2 6204
2 9 11091
9 18 9870
18 25 7368
25 13 1644
13 5 6994
5 4 10978
4 28 9482
28 29 52270
29 14 53997
14 26 12452
26 16 23200
16 11 17050
11 22 10310
22 19 8375
19 20 59143
20 1 190821
1 24 54636
24 17 276644
17 10 52694
10 12 116497
12 8 61690
8 27 98591
27 7 7370
7 3 5029
3 23 112203
23 21 92634
21 15 19591
